NAME : census.pruned_local_16.tour
TYPE : TOUR
DIMENSION : 68
TOUR_SECTION
1
2
3
8
9
14
35
62
4
30
36
5
16
38
44
6
25
32
34
37
42
47
49
52
63
64
66
67
68
7
15
31
46
60
61
10
20
21
24
26
53
65
11
18
19
22
23
28
29
43
45
48
51
55
12
41
56
57
58
13
17
27
33
39
40
50
54
59
-1
EOF
